nK = 2871;
nT = 8;
nI = 21;
L = 29;
TT = 583;
np = 1;
nc = 3;
b = [62, 42, 58, 45, 55, 48, 32, 44, 57, 70, 56, 22, 22, 24, 37, 21, 64, 42, 54, 52, 57];
d = [112, 76, 146, 115, 89, 123, 124, 111, 103, 133, 88, 69, 144, 37, 76, 118, 107, 112, 149, 110, 135];
m = [1, 2.3, 1.6, 2.2, 2.4, 2.1, 2.2, 1.4, 1.4, 2.3, 2.3, 1.3, 1.2, 1.9, 1.1, 1, 1.8, 1.4, 1.5, 1, 2.4];
pt = [0.32, 0.2, 0.26, 0.2, 0.28, 0.32, 0.32, 0.33];
st = [14.72, 8.8, 12.74, 9, 14.56, 19.2, 14.08, 18.15];
arc = {<1, 0, 1, 1, 0, 0, 0, [1, 1, 1, 1, 1, 1, 1, 1]>, <2, 1, 2, 1, 0, 0, 0, [1, 1, 1, 1, 1, 1, 1, 1]>, <3, 2, 3, 1, 0, 0, 0, [1, 1, 1, 1, 1, 1, 1, 1]>, <4, 3, 4, 1, 0, 0, 0, [1, 1, 1, 1, 1, 1, 1, 1]>, <5, 4, 5, 1, 0, 0, 0, [1, 1, 1, 1, 1, 1, 1, 1]>, <6, 5, 6, 1, 0, 0, 0, [1, 1, 1, 1, 1, 1, 1, 1]>, <7, 6, 7, 1, 0, 0, 0, [1, 1, 1, 1, 1, 1, 1, 1]>, <8, 7, 8, 1, 0, 0, 0, [1, 1, 1, 1, 1, 1, 1, 1]>, <9, 8, 9, 1, 0, 0, 0, [1, 1, 1, 1, 1, 1, 1, 1]>, <10, 9, 10, 1, 0, 0, 0, [1, 1, 1, 1, 1, 1, 1, 1]>, <11, 10, 11, 1, 0, 0, 0, [1, 1, 1, 1, 1, 1, 1, 1]>, <12, 11, 12, 1, 0, 0, 0, [1, 1, 1, 1, 1, 1, 1, 1]>, <13, 12, 13, 1, 0, 0, 0, [1, 1, 1, 1, 1, 1, 1, 1]>, <14, 13, 14, 1, 0, 0, 0, [1, 1, 1, 1, 1, 1, 1, 1]>, <15, 14, 15, 1, 0, 0, 0, [1, 1, 1, 1, 1, 1, 1, 1]>, <16, 15, 16, 1, 0, 0, 0, [1, 1, 1, 1, 1, 1, 1, 1]>, <17, 16, 17, 1, 0, 0, 0, [1, 1, 1, 1, 1, 1, 1, 1]>, <18, 17, 18, 1, 0, 0, 0, [1, 1, 1, 1, 1, 1, 1, 1]>, <19, 18, 19, 1, 0, 0, 0, [1, 1, 1, 1, 1, 1, 1, 1]>, <20, 19, 20, 1, 0, 0, 0, [1, 1, 1, 1, 1, 1, 1, 1]>, <21, 20, 21, 1, 0, 0, 0, [1, 1, 1, 1, 1, 1, 1, 1]>, <22, 21, 22, 1, 0, 0, 0, [1, 1, 1, 1, 1, 1, 1, 1]>, <23, 22, 23, 1, 0, 0, 0, [1, 1, 1, 1, 1, 1, 1, 1]>, <24, 23, 24, 1, 0, 0, 0, [1, 1, 1, 1, 1, 1, 1, 1]>, <25, 24, 25, 1, 0, 0, 0, [1, 1, 1, 1, 1, 1, 1, 1]>, <26, 25, 26, 1, 0, 0, 0, [1, 1, 1, 1, 1, 1, 1, 1]>, <27, 26, 27, 1, 0, 0, 0, [1, 1, 1, 1, 1, 1, 1, 1]>, <28, 27, 28, 1, 0, 0, 0, [1, 1, 1, 1, 1, 1, 1, 1]>, <29, 28, 29, 1, 0, 0, 0, [1, 1, 1, 1, 1, 1, 1, 1]>, <30, 0, 15, 15, 1, 0, 0, [1, 1, 1, 0, 0, 0, 0, 1]>, <31, 1, 16, 15, 1, 0, 0, [1, 1, 1, 0, 0, 0, 0, 1]>, <32, 2, 17, 15, 1, 0, 0, [1, 1, 1, 0, 0, 0, 0, 1]>, <33, 3, 18, 15, 1, 0, 0, [1, 1, 1, 0, 0, 0, 0, 1]>, <34, 4, 19, 15, 1, 0, 0, [1, 1, 1, 0, 0, 0, 0, 1]>, <35, 5, 20, 15, 1, 0, 0, [1, 1, 1, 0, 0, 0, 0, 1]>, <36, 6, 21, 15, 1, 0, 0, [1, 1, 1, 0, 0, 0, 0, 1]>, <37, 7, 22, 15, 1, 0, 0, [1, 1, 1, 0, 0, 0, 0, 1]>, <38, 8, 23, 15, 1, 0, 0, [1, 1, 1, 0, 0, 0, 0, 1]>, <39, 9, 24, 15, 1, 0, 0, [1, 1, 1, 0, 0, 0, 0, 1]>, <40, 10, 25, 15, 1, 0, 0, [1, 1, 1, 0, 0, 0, 0, 1]>, <41, 11, 26, 15, 1, 0, 0, [1, 1, 1, 0, 0, 0, 0, 1]>, <42, 12, 27, 15, 1, 0, 0, [1, 1, 1, 0, 0, 0, 0, 1]>, <43, 13, 28, 15, 1, 0, 0, [1, 1, 1, 0, 0, 0, 0, 1]>, <44, 14, 29, 15, 1, 0, 0, [1, 1, 1, 0, 0, 0, 0, 1]>, <45, 0, 15, 15, 2, 0, 1, [0, 1, 1, 1, 1, 0, 0, 0]>, <46, 1, 16, 15, 2, 0, 1, [0, 1, 1, 1, 1, 0, 0, 0]>, <47, 2, 17, 15, 2, 0, 1, [0, 1, 1, 1, 1, 0, 0, 0]>, <48, 3, 18, 15, 2, 0, 1, [0, 1, 1, 1, 1, 0, 0, 0]>, <49, 4, 19, 15, 2, 0, 1, [0, 1, 1, 1, 1, 0, 0, 0]>, <50, 5, 20, 15, 2, 0, 1, [0, 1, 1, 1, 1, 0, 0, 0]>, <51, 6, 21, 15, 2, 0, 1, [0, 1, 1, 1, 1, 0, 0, 0]>, <52, 7, 22, 15, 2, 0, 1, [0, 1, 1, 1, 1, 0, 0, 0]>, <53, 8, 23, 15, 2, 0, 1, [0, 1, 1, 1, 1, 0, 0, 0]>, <54, 9, 24, 15, 2, 0, 1, [0, 1, 1, 1, 1, 0, 0, 0]>, <55, 10, 25, 15, 2, 0, 1, [0, 1, 1, 1, 1, 0, 0, 0]>, <56, 11, 26, 15, 2, 0, 1, [0, 1, 1, 1, 1, 0, 0, 0]>, <57, 12, 27, 15, 2, 0, 1, [0, 1, 1, 1, 1, 0, 0, 0]>, <58, 13, 28, 15, 2, 0, 1, [0, 1, 1, 1, 1, 0, 0, 0]>, <59, 14, 29, 15, 2, 0, 1, [0, 1, 1, 1, 1, 0, 0, 0]>, <60, 0, 15, 15, 3, 0, 0, [0, 0, 0, 0, 1, 1, 1, 1]>, <61, 1, 16, 15, 3, 0, 0, [0, 0, 0, 0, 1, 1, 1, 1]>, <62, 2, 17, 15, 3, 0, 0, [0, 0, 0, 0, 1, 1, 1, 1]>, <63, 3, 18, 15, 3, 0, 0, [0, 0, 0, 0, 1, 1, 1, 1]>, <64, 4, 19, 15, 3, 0, 0, [0, 0, 0, 0, 1, 1, 1, 1]>, <65, 5, 20, 15, 3, 0, 0, [0, 0, 0, 0, 1, 1, 1, 1]>, <66, 6, 21, 15, 3, 0, 0, [0, 0, 0, 0, 1, 1, 1, 1]>, <67, 7, 22, 15, 3, 0, 0, [0, 0, 0, 0, 1, 1, 1, 1]>, <68, 8, 23, 15, 3, 0, 0, [0, 0, 0, 0, 1, 1, 1, 1]>, <69, 9, 24, 15, 3, 0, 0, [0, 0, 0, 0, 1, 1, 1, 1]>, <70, 10, 25, 15, 3, 0, 0, [0, 0, 0, 0, 1, 1, 1, 1]>, <71, 11, 26, 15, 3, 0, 0, [0, 0, 0, 0, 1, 1, 1, 1]>, <72, 12, 27, 15, 3, 0, 0, [0, 0, 0, 0, 1, 1, 1, 1]>, <73, 13, 28, 15, 3, 0, 0, [0, 0, 0, 0, 1, 1, 1, 1]>, <74, 14, 29, 15, 3, 0, 0, [0, 0, 0, 0, 1, 1, 1, 1]>, <75, 0, 15, 15, 4, 0, 0, [1, 1, 0, 0, 0, 0, 1, 1]>, <76, 1, 16, 15, 4, 0, 0, [1, 1, 0, 0, 0, 0, 1, 1]>, <77, 2, 17, 15, 4, 0, 0, [1, 1, 0, 0, 0, 0, 1, 1]>, <78, 3, 18, 15, 4, 0, 0, [1, 1, 0, 0, 0, 0, 1, 1]>, <79, 4, 19, 15, 4, 0, 0, [1, 1, 0, 0, 0, 0, 1, 1]>, <80, 5, 20, 15, 4, 0, 0, [1, 1, 0, 0, 0, 0, 1, 1]>, <81, 6, 21, 15, 4, 0, 0, [1, 1, 0, 0, 0, 0, 1, 1]>, <82, 7, 22, 15, 4, 0, 0, [1, 1, 0, 0, 0, 0, 1, 1]>, <83, 8, 23, 15, 4, 0, 0, [1, 1, 0, 0, 0, 0, 1, 1]>, <84, 9, 24, 15, 4, 0, 0, [1, 1, 0, 0, 0, 0, 1, 1]>, <85, 10, 25, 15, 4, 0, 0, [1, 1, 0, 0, 0, 0, 1, 1]>, <86, 11, 26, 15, 4, 0, 0, [1, 1, 0, 0, 0, 0, 1, 1]>, <87, 12, 27, 15, 4, 0, 0, [1, 1, 0, 0, 0, 0, 1, 1]>, <88, 13, 28, 15, 4, 0, 0, [1, 1, 0, 0, 0, 0, 1, 1]>, <89, 14, 29, 15, 4, 0, 0, [1, 1, 0, 0, 0, 0, 1, 1]>, <90, 0, 16, 16, 5, 0, 0, [1, 1, 0, 0, 0, 0, 1, 1]>, <91, 1, 17, 16, 5, 0, 0, [1, 1, 0, 0, 0, 0, 1, 1]>, <92, 2, 18, 16, 5, 0, 0, [1, 1, 0, 0, 0, 0, 1, 1]>, <93, 3, 19, 16, 5, 0, 0, [1, 1, 0, 0, 0, 0, 1, 1]>, <94, 4, 20, 16, 5, 0, 0, [1, 1, 0, 0, 0, 0, 1, 1]>, <95, 5, 21, 16, 5, 0, 0, [1, 1, 0, 0, 0, 0, 1, 1]>, <96, 6, 22, 16, 5, 0, 0, [1, 1, 0, 0, 0, 0, 1, 1]>, <97, 7, 23, 16, 5, 0, 0, [1, 1, 0, 0, 0, 0, 1, 1]>, <98, 8, 24, 16, 5, 0, 0, [1, 1, 0, 0, 0, 0, 1, 1]>, <99, 9, 25, 16, 5, 0, 0, [1, 1, 0, 0, 0, 0, 1, 1]>, <100, 10, 26, 16, 5, 0, 0, [1, 1, 0, 0, 0, 0, 1, 1]>, <101, 11, 27, 16, 5, 0, 0, [1, 1, 0, 0, 0, 0, 1, 1]>, <102, 12, 28, 16, 5, 0, 0, [1, 1, 0, 0, 0, 0, 1, 1]>, <103, 13, 29, 16, 5, 0, 0, [1, 1, 0, 0, 0, 0, 1, 1]>, <104, 0, 14, 14, 6, 1, 0, [1, 0, 0, 0, 0, 1, 1, 1]>, <105, 1, 15, 14, 6, 1, 0, [1, 0, 0, 0, 0, 1, 1, 1]>, <106, 2, 16, 14, 6, 1, 0, [1, 0, 0, 0, 0, 1, 1, 1]>, <107, 3, 17, 14, 6, 1, 0, [1, 0, 0, 0, 0, 1, 1, 1]>, <108, 4, 18, 14, 6, 1, 0, [1, 0, 0, 0, 0, 1, 1, 1]>, <109, 5, 19, 14, 6, 1, 0, [1, 0, 0, 0, 0, 1, 1, 1]>, <110, 6, 20, 14, 6, 1, 0, [1, 0, 0, 0, 0, 1, 1, 1]>, <111, 7, 21, 14, 6, 1, 0, [1, 0, 0, 0, 0, 1, 1, 1]>, <112, 8, 22, 14, 6, 1, 0, [1, 0, 0, 0, 0, 1, 1, 1]>, <113, 9, 23, 14, 6, 1, 0, [1, 0, 0, 0, 0, 1, 1, 1]>, <114, 10, 24, 14, 6, 1, 0, [1, 0, 0, 0, 0, 1, 1, 1]>, <115, 11, 25, 14, 6, 1, 0, [1, 0, 0, 0, 0, 1, 1, 1]>, <116, 12, 26, 14, 6, 1, 0, [1, 0, 0, 0, 0, 1, 1, 1]>, <117, 13, 27, 14, 6, 1, 0, [1, 0, 0, 0, 0, 1, 1, 1]>, <118, 14, 28, 14, 6, 1, 0, [1, 0, 0, 0, 0, 1, 1, 1]>, <119, 15, 29, 14, 6, 1, 0, [1, 0, 0, 0, 0, 1, 1, 1]>, <120, 0, 13, 13, 7, 1, 0, [1, 1, 1, 0, 0, 0, 0, 1]>, <121, 1, 14, 13, 7, 1, 0, [1, 1, 1, 0, 0, 0, 0, 1]>, <122, 2, 15, 13, 7, 1, 0, [1, 1, 1, 0, 0, 0, 0, 1]>, <123, 3, 16, 13, 7, 1, 0, [1, 1, 1, 0, 0, 0, 0, 1]>, <124, 4, 17, 13, 7, 1, 0, [1, 1, 1, 0, 0, 0, 0, 1]>, <125, 5, 18, 13, 7, 1, 0, [1, 1, 1, 0, 0, 0, 0, 1]>, <126, 7, 20, 13, 7, 1, 0, [1, 1, 1, 0, 0, 0, 0, 1]>, <127, 8, 21, 13, 7, 1, 0, [1, 1, 1, 0, 0, 0, 0, 1]>, <128, 9, 22, 13, 7, 1, 0, [1, 1, 1, 0, 0, 0, 0, 1]>, <129, 10, 23, 13, 7, 1, 0, [1, 1, 1, 0, 0, 0, 0, 1]>, <130, 11, 24, 13, 7, 1, 0, [1, 1, 1, 0, 0, 0, 0, 1]>, <131, 12, 25, 13, 7, 1, 0, [1, 1, 1, 0, 0, 0, 0, 1]>, <132, 13, 26, 13, 7, 1, 0, [1, 1, 1, 0, 0, 0, 0, 1]>, <133, 14, 27, 13, 7, 1, 0, [1, 1, 1, 0, 0, 0, 0, 1]>, <134, 15, 28, 13, 7, 1, 0, [1, 1, 1, 0, 0, 0, 0, 1]>, <135, 16, 29, 13, 7, 1, 0, [1, 1, 1, 0, 0, 0, 0, 1]>, <136, 0, 17, 17, 8, 0, 0, [0, 0, 0, 0, 1, 1, 1, 1]>, <137, 1, 18, 17, 8, 0, 0, [0, 0, 0, 0, 1, 1, 1, 1]>, <138, 2, 19, 17, 8, 0, 0, [0, 0, 0, 0, 1, 1, 1, 1]>, <139, 3, 20, 17, 8, 0, 0, [0, 0, 0, 0, 1, 1, 1, 1]>, <140, 4, 21, 17, 8, 0, 0, [0, 0, 0, 0, 1, 1, 1, 1]>, <141, 5, 22, 17, 8, 0, 0, [0, 0, 0, 0, 1, 1, 1, 1]>, <142, 6, 23, 17, 8, 0, 0, [0, 0, 0, 0, 1, 1, 1, 1]>, <143, 7, 24, 17, 8, 0, 0, [0, 0, 0, 0, 1, 1, 1, 1]>, <144, 8, 25, 17, 8, 0, 0, [0, 0, 0, 0, 1, 1, 1, 1]>, <145, 9, 26, 17, 8, 0, 0, [0, 0, 0, 0, 1, 1, 1, 1]>, <146, 10, 27, 17, 8, 0, 0, [0, 0, 0, 0, 1, 1, 1, 1]>, <147, 11, 28, 17, 8, 0, 0, [0, 0, 0, 0, 1, 1, 1, 1]>, <148, 12, 29, 17, 8, 0, 0, [0, 0, 0, 0, 1, 1, 1, 1]>, <149, 0, 14, 14, 9, 0, 1, [1, 0, 0, 0, 0, 1, 1, 1]>, <150, 1, 15, 14, 9, 0, 1, [1, 0, 0, 0, 0, 1, 1, 1]>, <151, 2, 16, 14, 9, 0, 1, [1, 0, 0, 0, 0, 1, 1, 1]>, <152, 3, 17, 14, 9, 0, 1, [1, 0, 0, 0, 0, 1, 1, 1]>, <153, 4, 18, 14, 9, 0, 1, [1, 0, 0, 0, 0, 1, 1, 1]>, <154, 5, 19, 14, 9, 0, 1, [1, 0, 0, 0, 0, 1, 1, 1]>, <155, 6, 20, 14, 9, 0, 1, [1, 0, 0, 0, 0, 1, 1, 1]>, <156, 7, 21, 14, 9, 0, 1, [1, 0, 0, 0, 0, 1, 1, 1]>, <157, 8, 22, 14, 9, 0, 1, [1, 0, 0, 0, 0, 1, 1, 1]>, <158, 9, 23, 14, 9, 0, 1, [1, 0, 0, 0, 0, 1, 1, 1]>, <159, 10, 24, 14, 9, 0, 1, [1, 0, 0, 0, 0, 1, 1, 1]>, <160, 11, 25, 14, 9, 0, 1, [1, 0, 0, 0, 0, 1, 1, 1]>, <161, 12, 26, 14, 9, 0, 1, [1, 0, 0, 0, 0, 1, 1, 1]>, <162, 13, 27, 14, 9, 0, 1, [1, 0, 0, 0, 0, 1, 1, 1]>, <163, 14, 28, 14, 9, 0, 1, [1, 0, 0, 0, 0, 1, 1, 1]>, <164, 15, 29, 14, 9, 0, 1, [1, 0, 0, 0, 0, 1, 1, 1]>, <165, 0, 15, 15, 10, 0, 0, [1, 0, 0, 0, 0, 1, 1, 1]>, <166, 1, 16, 15, 10, 0, 0, [1, 0, 0, 0, 0, 1, 1, 1]>, <167, 2, 17, 15, 10, 0, 0, [1, 0, 0, 0, 0, 1, 1, 1]>, <168, 3, 18, 15, 10, 0, 0, [1, 0, 0, 0, 0, 1, 1, 1]>, <169, 4, 19, 15, 10, 0, 0, [1, 0, 0, 0, 0, 1, 1, 1]>, <170, 5, 20, 15, 10, 0, 0, [1, 0, 0, 0, 0, 1, 1, 1]>, <171, 6, 21, 15, 10, 0, 0, [1, 0, 0, 0, 0, 1, 1, 1]>, <172, 7, 22, 15, 10, 0, 0, [1, 0, 0, 0, 0, 1, 1, 1]>, <173, 8, 23, 15, 10, 0, 0, [1, 0, 0, 0, 0, 1, 1, 1]>, <174, 9, 24, 15, 10, 0, 0, [1, 0, 0, 0, 0, 1, 1, 1]>, <175, 10, 25, 15, 10, 0, 0, [1, 0, 0, 0, 0, 1, 1, 1]>, <176, 11, 26, 15, 10, 0, 0, [1, 0, 0, 0, 0, 1, 1, 1]>, <177, 12, 27, 15, 10, 0, 0, [1, 0, 0, 0, 0, 1, 1, 1]>, <178, 13, 28, 15, 10, 0, 0, [1, 0, 0, 0, 0, 1, 1, 1]>, <179, 14, 29, 15, 10, 0, 0, [1, 0, 0, 0, 0, 1, 1, 1]>, <180, 0, 13, 13, 11, 0, 1, [0, 1, 1, 1, 1, 0, 0, 0]>, <181, 1, 14, 13, 11, 0, 1, [0, 1, 1, 1, 1, 0, 0, 0]>, <182, 2, 15, 13, 11, 0, 1, [0, 1, 1, 1, 1, 0, 0, 0]>, <183, 3, 16, 13, 11, 0, 1, [0, 1, 1, 1, 1, 0, 0, 0]>, <184, 4, 17, 13, 11, 0, 1, [0, 1, 1, 1, 1, 0, 0, 0]>, <185, 5, 18, 13, 11, 0, 1, [0, 1, 1, 1, 1, 0, 0, 0]>, <186, 7, 20, 13, 11, 0, 1, [0, 1, 1, 1, 1, 0, 0, 0]>, <187, 8, 21, 13, 11, 0, 1, [0, 1, 1, 1, 1, 0, 0, 0]>, <188, 9, 22, 13, 11, 0, 1, [0, 1, 1, 1, 1, 0, 0, 0]>, <189, 10, 23, 13, 11, 0, 1, [0, 1, 1, 1, 1, 0, 0, 0]>, <190, 11, 24, 13, 11, 0, 1, [0, 1, 1, 1, 1, 0, 0, 0]>, <191, 12, 25, 13, 11, 0, 1, [0, 1, 1, 1, 1, 0, 0, 0]>, <192, 13, 26, 13, 11, 0, 1, [0, 1, 1, 1, 1, 0, 0, 0]>, <193, 14, 27, 13, 11, 0, 1, [0, 1, 1, 1, 1, 0, 0, 0]>, <194, 15, 28, 13, 11, 0, 1, [0, 1, 1, 1, 1, 0, 0, 0]>, <195, 16, 29, 13, 11, 0, 1, [0, 1, 1, 1, 1, 0, 0, 0]>, <196, 0, 15, 15, 12, 1, 0, [1, 1, 1, 1, 0, 0, 0, 0]>, <197, 1, 16, 15, 12, 1, 0, [1, 1, 1, 1, 0, 0, 0, 0]>, <198, 2, 17, 15, 12, 1, 0, [1, 1, 1, 1, 0, 0, 0, 0]>, <199, 3, 18, 15, 12, 1, 0, [1, 1, 1, 1, 0, 0, 0, 0]>, <200, 4, 19, 15, 12, 1, 0, [1, 1, 1, 1, 0, 0, 0, 0]>, <201, 5, 20, 15, 12, 1, 0, [1, 1, 1, 1, 0, 0, 0, 0]>, <202, 6, 21, 15, 12, 1, 0, [1, 1, 1, 1, 0, 0, 0, 0]>, <203, 7, 22, 15, 12, 1, 0, [1, 1, 1, 1, 0, 0, 0, 0]>, <204, 8, 23, 15, 12, 1, 0, [1, 1, 1, 1, 0, 0, 0, 0]>, <205, 9, 24, 15, 12, 1, 0, [1, 1, 1, 1, 0, 0, 0, 0]>, <206, 10, 25, 15, 12, 1, 0, [1, 1, 1, 1, 0, 0, 0, 0]>, <207, 11, 26, 15, 12, 1, 0, [1, 1, 1, 1, 0, 0, 0, 0]>, <208, 12, 27, 15, 12, 1, 0, [1, 1, 1, 1, 0, 0, 0, 0]>, <209, 13, 28, 15, 12, 1, 0, [1, 1, 1, 1, 0, 0, 0, 0]>, <210, 14, 29, 15, 12, 1, 0, [1, 1, 1, 1, 0, 0, 0, 0]>, <211, 0, 16, 16, 13, 0, 0, [0, 0, 0, 0, 1, 1, 1, 1]>, <212, 1, 17, 16, 13, 0, 0, [0, 0, 0, 0, 1, 1, 1, 1]>, <213, 2, 18, 16, 13, 0, 0, [0, 0, 0, 0, 1, 1, 1, 1]>, <214, 3, 19, 16, 13, 0, 0, [0, 0, 0, 0, 1, 1, 1, 1]>, <215, 4, 20, 16, 13, 0, 0, [0, 0, 0, 0, 1, 1, 1, 1]>, <216, 5, 21, 16, 13, 0, 0, [0, 0, 0, 0, 1, 1, 1, 1]>, <217, 6, 22, 16, 13, 0, 0, [0, 0, 0, 0, 1, 1, 1, 1]>, <218, 7, 23, 16, 13, 0, 0, [0, 0, 0, 0, 1, 1, 1, 1]>, <219, 8, 24, 16, 13, 0, 0, [0, 0, 0, 0, 1, 1, 1, 1]>, <220, 9, 25, 16, 13, 0, 0, [0, 0, 0, 0, 1, 1, 1, 1]>, <221, 10, 26, 16, 13, 0, 0, [0, 0, 0, 0, 1, 1, 1, 1]>, <222, 11, 27, 16, 13, 0, 0, [0, 0, 0, 0, 1, 1, 1, 1]>, <223, 12, 28, 16, 13, 0, 0, [0, 0, 0, 0, 1, 1, 1, 1]>, <224, 13, 29, 16, 13, 0, 0, [0, 0, 0, 0, 1, 1, 1, 1]>, <225, 0, 13, 13, 14, 0, 1, [0, 0, 0, 0, 1, 1, 1, 1]>, <226, 1, 14, 13, 14, 0, 1, [0, 0, 0, 0, 1, 1, 1, 1]>, <227, 2, 15, 13, 14, 0, 1, [0, 0, 0, 0, 1, 1, 1, 1]>, <228, 3, 16, 13, 14, 0, 1, [0, 0, 0, 0, 1, 1, 1, 1]>, <229, 4, 17, 13, 14, 0, 1, [0, 0, 0, 0, 1, 1, 1, 1]>, <230, 5, 18, 13, 14, 0, 1, [0, 0, 0, 0, 1, 1, 1, 1]>, <231, 7, 20, 13, 14, 0, 1, [0, 0, 0, 0, 1, 1, 1, 1]>, <232, 8, 21, 13, 14, 0, 1, [0, 0, 0, 0, 1, 1, 1, 1]>, <233, 9, 22, 13, 14, 0, 1, [0, 0, 0, 0, 1, 1, 1, 1]>, <234, 10, 23, 13, 14, 0, 1, [0, 0, 0, 0, 1, 1, 1, 1]>, <235, 11, 24, 13, 14, 0, 1, [0, 0, 0, 0, 1, 1, 1, 1]>, <236, 12, 25, 13, 14, 0, 1, [0, 0, 0, 0, 1, 1, 1, 1]>, <237, 13, 26, 13, 14, 0, 1, [0, 0, 0, 0, 1, 1, 1, 1]>, <238, 14, 27, 13, 14, 0, 1, [0, 0, 0, 0, 1, 1, 1, 1]>, <239, 15, 28, 13, 14, 0, 1, [0, 0, 0, 0, 1, 1, 1, 1]>, <240, 16, 29, 13, 14, 0, 1, [0, 0, 0, 0, 1, 1, 1, 1]>, <241, 0, 16, 16, 15, 0, 0, [0, 0, 0, 0, 1, 1, 1, 1]>, <242, 1, 17, 16, 15, 0, 0, [0, 0, 0, 0, 1, 1, 1, 1]>, <243, 2, 18, 16, 15, 0, 0, [0, 0, 0, 0, 1, 1, 1, 1]>, <244, 3, 19, 16, 15, 0, 0, [0, 0, 0, 0, 1, 1, 1, 1]>, <245, 4, 20, 16, 15, 0, 0, [0, 0, 0, 0, 1, 1, 1, 1]>, <246, 5, 21, 16, 15, 0, 0, [0, 0, 0, 0, 1, 1, 1, 1]>, <247, 6, 22, 16, 15, 0, 0, [0, 0, 0, 0, 1, 1, 1, 1]>, <248, 7, 23, 16, 15, 0, 0, [0, 0, 0, 0, 1, 1, 1, 1]>, <249, 8, 24, 16, 15, 0, 0, [0, 0, 0, 0, 1, 1, 1, 1]>, <250, 9, 25, 16, 15, 0, 0, [0, 0, 0, 0, 1, 1, 1, 1]>, <251, 10, 26, 16, 15, 0, 0, [0, 0, 0, 0, 1, 1, 1, 1]>, <252, 11, 27, 16, 15, 0, 0, [0, 0, 0, 0, 1, 1, 1, 1]>, <253, 12, 28, 16, 15, 0, 0, [0, 0, 0, 0, 1, 1, 1, 1]>, <254, 13, 29, 16, 15, 0, 0, [0, 0, 0, 0, 1, 1, 1, 1]>, <255, 0, 15, 15, 16, 0, 1, [0, 0, 0, 0, 1, 1, 1, 1]>, <256, 1, 16, 15, 16, 0, 1, [0, 0, 0, 0, 1, 1, 1, 1]>, <257, 2, 17, 15, 16, 0, 1, [0, 0, 0, 0, 1, 1, 1, 1]>, <258, 3, 18, 15, 16, 0, 1, [0, 0, 0, 0, 1, 1, 1, 1]>, <259, 4, 19, 15, 16, 0, 1, [0, 0, 0, 0, 1, 1, 1, 1]>, <260, 5, 20, 15, 16, 0, 1, [0, 0, 0, 0, 1, 1, 1, 1]>, <261, 6, 21, 15, 16, 0, 1, [0, 0, 0, 0, 1, 1, 1, 1]>, <262, 7, 22, 15, 16, 0, 1, [0, 0, 0, 0, 1, 1, 1, 1]>, <263, 8, 23, 15, 16, 0, 1, [0, 0, 0, 0, 1, 1, 1, 1]>, <264, 9, 24, 15, 16, 0, 1, [0, 0, 0, 0, 1, 1, 1, 1]>, <265, 10, 25, 15, 16, 0, 1, [0, 0, 0, 0, 1, 1, 1, 1]>, <266, 11, 26, 15, 16, 0, 1, [0, 0, 0, 0, 1, 1, 1, 1]>, <267, 12, 27, 15, 16, 0, 1, [0, 0, 0, 0, 1, 1, 1, 1]>, <268, 13, 28, 15, 16, 0, 1, [0, 0, 0, 0, 1, 1, 1, 1]>, <269, 14, 29, 15, 16, 0, 1, [0, 0, 0, 0, 1, 1, 1, 1]>, <270, 0, 18, 18, 17, 1, 0, [0, 0, 0, 0, 1, 1, 1, 1]>, <271, 1, 19, 18, 17, 1, 0, [0, 0, 0, 0, 1, 1, 1, 1]>, <272, 2, 20, 18, 17, 1, 0, [0, 0, 0, 0, 1, 1, 1, 1]>, <273, 3, 21, 18, 17, 1, 0, [0, 0, 0, 0, 1, 1, 1, 1]>, <274, 4, 22, 18, 17, 1, 0, [0, 0, 0, 0, 1, 1, 1, 1]>, <275, 5, 23, 18, 17, 1, 0, [0, 0, 0, 0, 1, 1, 1, 1]>, <276, 6, 24, 18, 17, 1, 0, [0, 0, 0, 0, 1, 1, 1, 1]>, <277, 7, 25, 18, 17, 1, 0, [0, 0, 0, 0, 1, 1, 1, 1]>, <278, 8, 26, 18, 17, 1, 0, [0, 0, 0, 0, 1, 1, 1, 1]>, <279, 9, 27, 18, 17, 1, 0, [0, 0, 0, 0, 1, 1, 1, 1]>, <280, 10, 28, 18, 17, 1, 0, [0, 0, 0, 0, 1, 1, 1, 1]>, <281, 11, 29, 18, 17, 1, 0, [0, 0, 0, 0, 1, 1, 1, 1]>, <282, 0, 15, 15, 18, 0, 0, [1, 1, 0, 0, 0, 0, 1, 1]>, <283, 1, 16, 15, 18, 0, 0, [1, 1, 0, 0, 0, 0, 1, 1]>, <284, 2, 17, 15, 18, 0, 0, [1, 1, 0, 0, 0, 0, 1, 1]>, <285, 3, 18, 15, 18, 0, 0, [1, 1, 0, 0, 0, 0, 1, 1]>, <286, 4, 19, 15, 18, 0, 0, [1, 1, 0, 0, 0, 0, 1, 1]>, <287, 5, 20, 15, 18, 0, 0, [1, 1, 0, 0, 0, 0, 1, 1]>, <288, 6, 21, 15, 18, 0, 0, [1, 1, 0, 0, 0, 0, 1, 1]>, <289, 7, 22, 15, 18, 0, 0, [1, 1, 0, 0, 0, 0, 1, 1]>, <290, 8, 23, 15, 18, 0, 0, [1, 1, 0, 0, 0, 0, 1, 1]>, <291, 9, 24, 15, 18, 0, 0, [1, 1, 0, 0, 0, 0, 1, 1]>, <292, 10, 25, 15, 18, 0, 0, [1, 1, 0, 0, 0, 0, 1, 1]>, <293, 11, 26, 15, 18, 0, 0, [1, 1, 0, 0, 0, 0, 1, 1]>, <294, 12, 27, 15, 18, 0, 0, [1, 1, 0, 0, 0, 0, 1, 1]>, <295, 13, 28, 15, 18, 0, 0, [1, 1, 0, 0, 0, 0, 1, 1]>, <296, 14, 29, 15, 18, 0, 0, [1, 1, 0, 0, 0, 0, 1, 1]>, <297, 0, 18, 18, 19, 0, 0, [0, 0, 0, 1, 1, 1, 1, 0]>, <298, 1, 19, 18, 19, 0, 0, [0, 0, 0, 1, 1, 1, 1, 0]>, <299, 2, 20, 18, 19, 0, 0, [0, 0, 0, 1, 1, 1, 1, 0]>, <300, 3, 21, 18, 19, 0, 0, [0, 0, 0, 1, 1, 1, 1, 0]>, <301, 4, 22, 18, 19, 0, 0, [0, 0, 0, 1, 1, 1, 1, 0]>, <302, 5, 23, 18, 19, 0, 0, [0, 0, 0, 1, 1, 1, 1, 0]>, <303, 6, 24, 18, 19, 0, 0, [0, 0, 0, 1, 1, 1, 1, 0]>, <304, 7, 25, 18, 19, 0, 0, [0, 0, 0, 1, 1, 1, 1, 0]>, <305, 8, 26, 18, 19, 0, 0, [0, 0, 0, 1, 1, 1, 1, 0]>, <306, 9, 27, 18, 19, 0, 0, [0, 0, 0, 1, 1, 1, 1, 0]>, <307, 10, 28, 18, 19, 0, 0, [0, 0, 0, 1, 1, 1, 1, 0]>, <308, 11, 29, 18, 19, 0, 0, [0, 0, 0, 1, 1, 1, 1, 0]>, <309, 0, 15, 15, 20, 0, 1, [0, 0, 0, 0, 1, 1, 1, 1]>, <310, 1, 16, 15, 20, 0, 1, [0, 0, 0, 0, 1, 1, 1, 1]>, <311, 2, 17, 15, 20, 0, 1, [0, 0, 0, 0, 1, 1, 1, 1]>, <312, 3, 18, 15, 20, 0, 1, [0, 0, 0, 0, 1, 1, 1, 1]>, <313, 4, 19, 15, 20, 0, 1, [0, 0, 0, 0, 1, 1, 1, 1]>, <314, 5, 20, 15, 20, 0, 1, [0, 0, 0, 0, 1, 1, 1, 1]>, <315, 6, 21, 15, 20, 0, 1, [0, 0, 0, 0, 1, 1, 1, 1]>, <316, 7, 22, 15, 20, 0, 1, [0, 0, 0, 0, 1, 1, 1, 1]>, <317, 8, 23, 15, 20, 0, 1, [0, 0, 0, 0, 1, 1, 1, 1]>, <318, 9, 24, 15, 20, 0, 1, [0, 0, 0, 0, 1, 1, 1, 1]>, <319, 10, 25, 15, 20, 0, 1, [0, 0, 0, 0, 1, 1, 1, 1]>, <320, 11, 26, 15, 20, 0, 1, [0, 0, 0, 0, 1, 1, 1, 1]>, <321, 12, 27, 15, 20, 0, 1, [0, 0, 0, 0, 1, 1, 1, 1]>, <322, 13, 28, 15, 20, 0, 1, [0, 0, 0, 0, 1, 1, 1, 1]>, <323, 14, 29, 15, 20, 0, 1, [0, 0, 0, 0, 1, 1, 1, 1]>, <324, 0, 18, 18, 21, 0, 1, [0, 0, 1, 1, 1, 1, 0, 0]>, <325, 1, 19, 18, 21, 0, 1, [0, 0, 1, 1, 1, 1, 0, 0]>, <326, 2, 20, 18, 21, 0, 1, [0, 0, 1, 1, 1, 1, 0, 0]>, <327, 3, 21, 18, 21, 0, 1, [0, 0, 1, 1, 1, 1, 0, 0]>, <328, 4, 22, 18, 21, 0, 1, [0, 0, 1, 1, 1, 1, 0, 0]>, <329, 5, 23, 18, 21, 0, 1, [0, 0, 1, 1, 1, 1, 0, 0]>, <330, 6, 24, 18, 21, 0, 1, [0, 0, 1, 1, 1, 1, 0, 0]>, <331, 7, 25, 18, 21, 0, 1, [0, 0, 1, 1, 1, 1, 0, 0]>, <332, 8, 26, 18, 21, 0, 1, [0, 0, 1, 1, 1, 1, 0, 0]>, <333, 9, 27, 18, 21, 0, 1, [0, 0, 1, 1, 1, 1, 0, 0]>, <334, 10, 28, 18, 21, 0, 1, [0, 0, 1, 1, 1, 1, 0, 0]>, <335, 11, 29, 18, 21, 0, 1, [0, 0, 1, 1, 1, 1, 0, 0]>};
